200
1000
396
394
394
394
394
394
393
391
391
390
390
389
389
388
387
386
386
386
385
384
384
384
384
383
383
382
380
379
378
378
377
376
376
376
375
375
374
374
373
371
371
370
370
369
369
369
367
366
365
363
363
363
362
361
360
359
359
357
357
356
354
354
351
351
351
350
350
350
349
349
349
348
347
346
346
345
345
344
343
343
342
342
340
340
339
337
337
337
337
336
336
335
334
334
333
333
333
333
333
332
332
332
331
330
330
330
329
329
329
328
328
327
325
324
324
323
322
322
322
322
320
319
319
318
315
314
314
313
313
313
313
312
312
310
309
308
308
307
306
306
305
304
304
304
301
299
299
299
298
298
298
297
297
297
296
294
294
294
294
294
293
292
291
291
290
290
289
289
288
286
286
285
284
280
280
279
278
277
277
276
275
275
275
274
273
272
272
271
271
270
270
270
269
269
268
267
266
266
266
266
